
Gurobi 8.1.1 (win64, Python) logging started 11/19/19 10:25:39

Academic license - for non-commercial use only
No parameters matching 'M' found

Gurobi 8.1.1 (win64, Python) logging started 11/19/19 10:34:35

Academic license - for non-commercial use only
No parameters matching 'M' found

Gurobi 8.1.1 (win64, Python) logging started 11/19/19 10:36:01

Academic license - for non-commercial use only
No parameters matching 'M' found

Gurobi 8.1.1 (win64, Python) logging started 11/19/19 10:36:54

Academic license - for non-commercial use only
No parameters matching 'M' found

Gurobi 8.1.1 (win64, Python) logging started 11/19/19 10:44:08

Academic license - for non-commercial use only
No parameters matching 'M' found

Gurobi 8.1.1 (win64, Python) logging started 11/19/19 10:45:32

Academic license - for non-commercial use only
No parameters matching 'M' found

Gurobi 8.1.1 (win64, Python) logging started 11/19/19 10:46:10

Academic license - for non-commercial use only
No parameters matching 'M' found

Gurobi 8.1.1 (win64, Python) logging started 11/19/19 10:47:15

Academic license - for non-commercial use only
No parameters matching 'M' found

Gurobi 8.1.1 (win64, Python) logging started 11/19/19 10:47:32

Academic license - for non-commercial use only
No parameters matching 'M' found

Gurobi 8.1.1 (win64, Python) logging started 11/19/19 10:47:44

Academic license - for non-commercial use only
No parameters matching 'M' found

Gurobi 8.1.1 (win64, Python) logging started 11/19/19 10:49:34

Academic license - for non-commercial use only
No parameters matching 'M' found

Gurobi 8.1.1 (win64, Python) logging started 11/19/19 10:52:09

Academic license - for non-commercial use only

Gurobi 8.1.1 (win64, Python) logging started 11/19/19 10:54:59

Academic license - for non-commercial use only

Gurobi 8.1.1 (win64, Python) logging started 11/19/19 10:56:03

Academic license - for non-commercial use only

Gurobi 8.1.1 (win64, Python) logging started 11/19/19 10:56:06

Academic license - for non-commercial use only

Gurobi 8.1.1 (win64, Python) logging started 11/19/19 10:56:15

Academic license - for non-commercial use only

Gurobi 8.1.1 (win64, Python) logging started 11/19/19 10:57:04

Academic license - for non-commercial use only
Optimize a model with 4584 rows, 1476 columns and 11076 nonzeros
Variable types: 12 continuous, 1464 integer (1464 binary)
Coefficient statistics:
  Matrix range     [1e+00, 3e+02]
  Objective range  [6e+00, 2e+02]
  Bounds range     [1e+00, 1e+00]
  RHS range        [1e+00, 3e+02]
Presolve removed 3567 rows and 1412 columns
Presolve time: 0.08s

Explored 0 nodes (0 simplex iterations) in 0.08 seconds
Thread count was 1 (of 4 available processors)

Solution count 0

Model is infeasible
Best objective -, best bound -, gap -

Gurobi 8.1.1 (win64, Python) logging started 11/19/19 10:58:33

Academic license - for non-commercial use only
Optimize a model with 4584 rows, 1476 columns and 11076 nonzeros
Variable types: 12 continuous, 1464 integer (1464 binary)
Coefficient statistics:
  Matrix range     [1e+00, 3e+02]
  Objective range  [9e+00, 2e+02]
  Bounds range     [1e+00, 1e+00]
  RHS range        [1e+00, 3e+02]
Presolve removed 1696 rows and 1428 columns
Presolve time: 0.05s

Explored 0 nodes (0 simplex iterations) in 0.05 seconds
Thread count was 1 (of 4 available processors)

Solution count 0

Model is infeasible
Best objective -, best bound -, gap -

Gurobi 8.1.1 (win64, Python) logging started 11/19/19 10:58:47

Academic license - for non-commercial use only
Optimize a model with 4584 rows, 1476 columns and 11076 nonzeros
Variable types: 12 continuous, 1464 integer (1464 binary)
Coefficient statistics:
  Matrix range     [1e+00, 3e+02]
  Objective range  [6e+00, 2e+02]
  Bounds range     [1e+00, 1e+00]
  RHS range        [1e+00, 3e+02]
Presolve removed 1777 rows and 1427 columns
Presolve time: 0.05s

Explored 0 nodes (0 simplex iterations) in 0.05 seconds
Thread count was 1 (of 4 available processors)

Solution count 0

Model is infeasible
Best objective -, best bound -, gap -

Gurobi 8.1.1 (win64, Python) logging started 11/19/19 10:58:51

Academic license - for non-commercial use only
Optimize a model with 4584 rows, 1476 columns and 11076 nonzeros
Variable types: 12 continuous, 1464 integer (1464 binary)
Coefficient statistics:
  Matrix range     [1e+00, 3e+02]
  Objective range  [6e+00, 2e+02]
  Bounds range     [1e+00, 1e+00]
  RHS range        [1e+00, 3e+02]
Presolve removed 3553 rows and 1445 columns
Presolve time: 0.05s

Explored 0 nodes (0 simplex iterations) in 0.05 seconds
Thread count was 1 (of 4 available processors)

Solution count 0

Model is infeasible
Best objective -, best bound -, gap -

Gurobi 8.1.1 (win64, Python) logging started 11/19/19 10:58:54

Academic license - for non-commercial use only
Optimize a model with 4584 rows, 1476 columns and 11076 nonzeros
Variable types: 12 continuous, 1464 integer (1464 binary)
Coefficient statistics:
  Matrix range     [1e+00, 3e+02]
  Objective range  [6e+00, 2e+02]
  Bounds range     [1e+00, 1e+00]
  RHS range        [1e+00, 3e+02]
Presolve removed 1610 rows and 1427 columns
Presolve time: 0.05s

Explored 0 nodes (0 simplex iterations) in 0.05 seconds
Thread count was 1 (of 4 available processors)

Solution count 0

Model is infeasible
Best objective -, best bound -, gap -

Gurobi 8.1.1 (win64, Python) logging started 11/19/19 10:58:58

Academic license - for non-commercial use only
Optimize a model with 4584 rows, 1476 columns and 11076 nonzeros
Variable types: 12 continuous, 1464 integer (1464 binary)
Coefficient statistics:
  Matrix range     [1e+00, 3e+02]
  Objective range  [6e+00, 2e+02]
  Bounds range     [1e+00, 1e+00]
  RHS range        [1e+00, 3e+02]
Presolve removed 1627 rows and 1432 columns
Presolve time: 0.05s

Explored 0 nodes (0 simplex iterations) in 0.05 seconds
Thread count was 1 (of 4 available processors)

Solution count 0

Model is infeasible
Best objective -, best bound -, gap -

Gurobi 8.1.1 (win64, Python) logging started 11/19/19 10:59:01

Academic license - for non-commercial use only
Optimize a model with 4584 rows, 1476 columns and 11076 nonzeros
Variable types: 12 continuous, 1464 integer (1464 binary)
Coefficient statistics:
  Matrix range     [1e+00, 3e+02]
  Objective range  [7e+00, 2e+02]
  Bounds range     [1e+00, 1e+00]
  RHS range        [1e+00, 3e+02]
Presolve removed 1657 rows and 1424 columns
Presolve time: 0.05s

Explored 0 nodes (0 simplex iterations) in 0.05 seconds
Thread count was 1 (of 4 available processors)

Solution count 0

Model is infeasible
Best objective -, best bound -, gap -

Gurobi 8.1.1 (win64, Python) logging started 11/19/19 10:59:04

Academic license - for non-commercial use only
Optimize a model with 4584 rows, 1476 columns and 11076 nonzeros
Variable types: 12 continuous, 1464 integer (1464 binary)
Coefficient statistics:
  Matrix range     [1e+00, 3e+02]
  Objective range  [7e+00, 2e+02]
  Bounds range     [1e+00, 1e+00]
  RHS range        [1e+00, 3e+02]
Presolve removed 1544 rows and 1421 columns
Presolve time: 0.05s

Explored 0 nodes (0 simplex iterations) in 0.05 seconds
Thread count was 1 (of 4 available processors)

Solution count 0

Model is infeasible
Best objective -, best bound -, gap -

Gurobi 8.1.1 (win64, Python) logging started 11/21/19 19:43:29

Academic license - for non-commercial use only
Optimize a model with 4608 rows, 1488 columns and 11100 nonzeros
Variable types: 12 continuous, 1476 integer (1476 binary)
Coefficient statistics:
  Matrix range     [1e+00, 3e+02]
  Objective range  [1e+01, 2e+02]
  Bounds range     [1e-06, 1e+00]
  RHS range        [1e+00, 3e+02]
Presolve removed 1520 rows and 441 columns
Presolve time: 0.20s
Presolved: 3088 rows, 1047 columns, 7214 nonzeros
Variable types: 9 continuous, 1038 integer (1038 binary)
Found heuristic solution: objective 2959.1205450

Root relaxation: objective 3.403453e+02, 91 iterations, 0.00 seconds

    Nodes    |    Current Node    |     Objective Bounds      |     Work
 Expl Unexpl |  Obj  Depth IntInf | Incumbent    BestBd   Gap | It/Node Time

     0     0  415.72082    0   22 2959.12055  415.72082  86.0%     -    0s
H    0     0                    2804.0050723  415.72082  85.2%     -    0s
H    0     0                    2292.8133585  415.72082  81.9%     -    0s
H    0     0                    2185.8133585  415.72082  81.0%     -    0s
     0     0  415.72082    0   27 2185.81336  415.72082  81.0%     -    0s
     0     0  415.72082    0   18 2185.81336  415.72082  81.0%     -    0s
     0     0  415.72082    0   38 2185.81336  415.72082  81.0%     -    0s
H    0     0                    2035.8133585  415.72082  79.6%     -    0s
     0     0  415.72082    0   19 2035.81336  415.72082  79.6%     -    0s
     0     0  415.72082    0   27 2035.81336  415.72082  79.6%     -    0s
     0     0  415.72082    0   18 2035.81336  415.72082  79.6%     -    0s
     0     0  415.72082    0   28 2035.81336  415.72082  79.6%     -    0s
     0     0  415.72082    0   28 2035.81336  415.72082  79.6%     -    0s
     0     2  415.72082    0   28 2035.81336  415.72082  79.6%     -    0s

Cutting planes:
  Gomory: 4
  Implied bound: 127
  MIR: 65
  Zero half: 20

Explored 14 nodes (2538 simplex iterations) in 1.24 seconds
Thread count was 4 (of 4 available processors)

Solution count 5: 2035.81 2185.81 2292.81 ... 2959.12

Optimal solution found (tolerance 1.00e-04)
Best objective 2.035813358456e+03, best bound 2.035813358456e+03, gap 0.0000%

Gurobi 8.1.1 (win64, Python) logging started 11/21/19 19:43:44

Academic license - for non-commercial use only
Optimize a model with 4608 rows, 1488 columns and 11100 nonzeros
Variable types: 12 continuous, 1476 integer (1476 binary)
Coefficient statistics:
  Matrix range     [1e+00, 3e+02]
  Objective range  [6e+00, 2e+02]
  Bounds range     [1e-06, 1e+00]
  RHS range        [1e+00, 3e+02]
Presolve removed 3430 rows and 1347 columns
Presolve time: 0.08s

Explored 0 nodes (0 simplex iterations) in 0.08 seconds
Thread count was 1 (of 4 available processors)

Solution count 0

Model is infeasible
Best objective -, best bound -, gap -

Gurobi 8.1.1 (win64, Python) logging started 11/21/19 19:44:02

Academic license - for non-commercial use only
Optimize a model with 4608 rows, 1488 columns and 11100 nonzeros
Variable types: 12 continuous, 1476 integer (1476 binary)
Coefficient statistics:
  Matrix range     [1e+00, 3e+02]
  Objective range  [6e+00, 2e+02]
  Bounds range     [1e-06, 1e+00]
  RHS range        [1e+00, 3e+02]
Presolve removed 978 rows and 270 columns
Presolve time: 0.05s
Presolved: 3630 rows, 1218 columns, 8460 nonzeros
Variable types: 12 continuous, 1206 integer (1206 binary)
Found heuristic solution: objective 2253.5744169

Root relaxation: objective 0.000000e+00, 143 iterations, 0.00 seconds

    Nodes    |    Current Node    |     Objective Bounds      |     Work
 Expl Unexpl |  Obj  Depth IntInf | Incumbent    BestBd   Gap | It/Node Time

     0     0    0.00000    0   39 2253.57442    0.00000   100%     -    0s
H    0     0                    1985.4482229    0.00000   100%     -    0s
H    0     0                    1695.5287296    0.00000   100%     -    0s
     0     0    0.00000    0   24 1695.52873    0.00000   100%     -    0s
H    0     0                    1582.0586531    0.00000   100%     -    0s
H    0     0                    1338.2131835    0.00000   100%     -    0s
     0     0    0.00000    0   49 1338.21318    0.00000   100%     -    0s
     0     0    0.00000    0   38 1338.21318    0.00000   100%     -    0s
     0     0    0.00000    0   27 1338.21318    0.00000   100%     -    0s
H    0     0                    1114.9769525    0.00000   100%     -    0s
     0     0    0.00000    0   41 1114.97695    0.00000   100%     -    0s
     0     0    0.00000    0   56 1114.97695    0.00000   100%     -    0s
     0     0    0.00000    0   53 1114.97695    0.00000   100%     -    0s
     0     0   27.33333    0  103 1114.97695   27.33333  97.5%     -    0s
     0     0   36.83333    0  131 1114.97695   36.83333  96.7%     -    0s
     0     0   38.00000    0  106 1114.97695   38.00000  96.6%     -    0s
     0     0   39.20000    0  171 1114.97695   39.20000  96.5%     -    0s
     0     0   39.20000    0  172 1114.97695   39.20000  96.5%     -    0s
     0     0  114.33333    0  165 1114.97695  114.33333  89.7%     -    0s
     0     0  157.50000    0  130 1114.97695  157.50000  85.9%     -    0s
     0     0  164.28059    0  238 1114.97695  164.28059  85.3%     -    0s
     0     0  170.27500    0  266 1114.97695  170.27500  84.7%     -    0s
     0     0  170.27500    0  270 1114.97695  170.27500  84.7%     -    0s
     0     0  231.84291    0  113 1114.97695  231.84291  79.2%     -    0s
H    0     0                    1114.8454696  231.84291  79.2%     -    0s
     0     0  231.84291    0  119 1114.84547  231.84291  79.2%     -    0s
     0     0  264.33333    0  128 1114.84547  264.33333  76.3%     -    0s
     0     0  266.33333    0  131 1114.84547  266.33333  76.1%     -    0s
     0     0  266.33333    0  137 1114.84547  266.33333  76.1%     -    0s
     0     0  288.66667    0  137 1114.84547  288.66667  74.1%     -    1s
H    0     0                    1092.4248959  288.66667  73.6%     -    1s
H    0     0                     923.8221425  288.66667  68.8%     -    1s
     0     0  288.66667    0  135  923.82214  288.66667  68.8%     -    1s
     0     0  303.32348    0  273  923.82214  303.32348  67.2%     -    1s
     0     0  311.33333    0  153  923.82214  311.33333  66.3%     -    1s
     0     0  311.33333    0  167  923.82214  311.33333  66.3%     -    1s
     0     0  313.77778    0  188  923.82214  313.77778  66.0%     -    1s
     0     0  319.42145    0  237  923.82214  319.42145  65.4%     -    1s
     0     0  320.66667    0  184  923.82214  320.66667  65.3%     -    1s
     0     0  320.92971    0  312  923.82214  320.92971  65.3%     -    1s
     0     0  322.25000    0  194  923.82214  322.25000  65.1%     -    1s
     0     0  322.33333    0  201  923.82214  322.33333  65.1%     -    1s
     0     0  336.82330    0  274  923.82214  336.82330  63.5%     -    1s
     0     0  340.27428    0  296  923.82214  340.27428  63.2%     -    1s
     0     0  341.79389    0  317  923.82214  341.79389  63.0%     -    1s
     0     0  342.55579    0  331  923.82214  342.55579  62.9%     -    1s
     0     0  342.55579    0  333  923.82214  342.55579  62.9%     -    1s
     0     0  406.63907    0  209  923.82214  406.63907  56.0%     -    1s
     0     0  407.65494    0  194  923.82214  407.65494  55.9%     -    1s
     0     0  408.21049    0  197  923.82214  408.21049  55.8%     -    1s
     0     0  408.21049    0  197  923.82214  408.21049  55.8%     -    1s
     0     0  437.62237    0  281  923.82214  437.62237  52.6%     -    1s
     0     0  446.31841    0  295  923.82214  446.31841  51.7%     -    1s
     0     0  452.01879    0  312  923.82214  452.01879  51.1%     -    1s
     0     0  455.56708    0  355  923.82214  455.56708  50.7%     -    1s
     0     0  455.56708    0  366  923.82214  455.56708  50.7%     -    1s
     0     0  505.20092    0  186  923.82214  505.20092  45.3%     -    1s
     0     0  505.20092    0  205  923.82214  505.20092  45.3%     -    1s
     0     0  512.85586    0  214  923.82214  512.85586  44.5%     -    1s
     0     0  516.00061    0  238  923.82214  516.00061  44.1%     -    1s
     0     0  516.00061    0  249  923.82214  516.00061  44.1%     -    1s
     0     0  521.81203    0  227  923.82214  521.81203  43.5%     -    1s
     0     0  522.90071    0  276  923.82214  522.90071  43.4%     -    1s
     0     0  523.31522    0  290  923.82214  523.31522  43.4%     -    1s
     0     0  523.31522    0  293  923.82214  523.31522  43.4%     -    1s
     0     0  528.78250    0  310  923.82214  528.78250  42.8%     -    1s
     0     0  530.46187    0  283  923.82214  530.46187  42.6%     -    1s
     0     0  531.07058    0  296  923.82214  531.07058  42.5%     -    1s
     0     0  531.79521    0  304  923.82214  531.79521  42.4%     -    1s
     0     0  531.79521    0  306  923.82214  531.79521  42.4%     -    1s
     0     0  548.60435    0  347  923.82214  548.60435  40.6%     -    2s
     0     0  552.03226    0  385  923.82214  552.03226  40.2%     -    2s
     0     0  552.03226    0  397  923.82214  552.03226  40.2%     -    2s
     0     0  552.82032    0  354  923.82214  552.82032  40.2%     -    2s
     0     0  552.89348    0  388  923.82214  552.89348  40.2%     -    2s
     0     0  552.89348    0  392  923.82214  552.89348  40.2%     -    2s
     0     0  552.89348    0  344  923.82214  552.89348  40.2%     -    2s
     0     2  552.89348    0  318  923.82214  552.89348  40.2%     -    2s
*   17    10               5     901.9536255  630.00000  30.2%   139    2s
*   22    10               5     885.9536255  630.00000  28.9%   120    2s
*   36     0               3     863.8221425  630.00000  27.1%  87.3    2s

Cutting planes:
  Gomory: 4
  Implied bound: 163
  Clique: 126
  MIR: 97
  Zero half: 101

Explored 38 nodes (11259 simplex iterations) in 2.37 seconds
Thread count was 4 (of 4 available processors)

Solution count 10: 863.822 885.954 901.954 ... 1695.53

Optimal solution found (tolerance 1.00e-04)
Best objective 8.638221425446e+02, best bound 8.638221425446e+02, gap 0.0000%
